150
[15,18,24,27,29,30,33,35,39,42,43,44,45,52,56,57,58,61,65,66,67,68,71,73,74,76,78,80,82,83,85,91,93,94,98,99,101,102,103,104]
[1,1,1,1,2,1,1,1,1,1,1,1,1,1,1,1,1,1,1,2,2,1,1,2,1,2,1,1,1,1,1,1,1,1,3,1,1,1,3,2]
